
  22   10
  10   10   10   10   10   10   10   10   10   10

   0   0   0   0   0   0   0   0   0   0   0   7 2 4 5 7 9 11 13 
   2   0   0   0   0  10   0   0   0   0   0   3 17 6 3 
   3   0   0   0   0  10   0   0   0   0   0   3 21 16 8 
   8   0  10   0   0   0   0   0   0   0   0   5 19 18 17 14 12 
   6  10   0   0   0   0   0   0   0   0   0   3 17 16 10 
   5  10   0   0   0   0   0   0   0   0   0   5 19 18 16 15 14 
  10   0   0   0   0   0  10   0   0   0   0   4 17 16 14 12 
   1   0  10   0   0   0   0   0   0   0   0   2 20 10 
   9  10   0   0   0   0   0   0   0   0   0   2 18 10 
   9   0   0   0   0   0   0   0   0   0  10   2 14 12 
   6   0   0  10   0   0   0   0   0   0   0   2 15 14 
   8   0   0   0   0  10   0   0   0   0   0   1 15 
   3   0   0   0   0   0   0   0   0   0  10   1 14 
   4   0   0   0   0  10   0   0   0   0   0   1 22
   8   0   0   0   0   0   0   0   0  10   0   1 22
  10   0  10   0   0   0   0   0   0   0   0   1 22
   9   0   0   0   0   0   0   0   0  10   0   1 22
   3   0   0   0   0   0   0   0   0  10   0   1 22
   6   0   0   0  10   0   0   0   0   0   0   1 22
   2   0   0   0   0   0   0   0   0  10   0   1 22
   2   0   0   0   0  10   0   0   0   0   0   1 22
   0   0   0   0   0   0   0   0   0   0   0   0 
